102415
4,63,39,52,41,78,69,15,25,42,55,23,12,3,43,57,34,49,47,60,81,72,51,7,56,17,77,9,58,74,32,82,75,40,11,33,27,16,38,2,30,35,28,79,6,61,83,8,53,59,68,44,22,5,19,31,24,48,21,71,20,66,36,26,76,67,14,70,62,80,29,10,1,64,73,45,46,54,13,37,18,65,50
